9
0, 268, 35, 64, 761, 274, 462, 986, 840
268, 0, 288, 318, 505, 49, 332, 717, 623
35, 288, 0, 80, 786, 298, 496, 1005, 871
64, 318, 80, 0, 796, 315, 467, 1032, 860
761, 505, 786, 796, 0, 488, 432, 302, 233
274, 49, 298, 315, 488, 0, 283, 717, 590
462, 332, 496, 467, 432, 283, 0, 727, 410
986, 717, 1005, 1032, 302, 717, 727, 0, 481
840, 623, 871, 860, 233, 590, 410, 481, 0
